;Number of predicates (nodes) = 43
;Number of variables = 13
;Number of clauses = 54
;
(set-logic HORN)
(declare-fun assign_77_2_484 ((Array Int Int) (Array Int Int) (Array Int Int) (Array Int Int) (Array Int Int) (Array Int Int) (Array Int Int) (Array Int Int) (Array Int Int) (Array Int Int) Int Int Int ) Bool)
(declare-fun assert_76_2_475 ((Array Int Int) (Array Int Int) (Array Int Int) (Array Int Int) (Array Int Int) (Array Int Int) (Array Int Int) (Array Int Int) (Array Int Int) (Array Int Int) Int Int Int ) Bool)
(declare-fun while_74_8_487 ((Array Int Int) (Array Int Int) (Array Int Int) (Array Int Int) (Array Int Int) (Array Int Int) (Array Int Int) (Array Int Int) (Array Int Int) (Array Int Int) Int Int Int ) Bool)
(declare-fun assign_73_1_449 ((Array Int Int) (Array Int Int) (Array Int Int) (Array Int Int) (Array Int Int) (Array Int Int) (Array Int Int) (Array Int Int) (Array Int Int) (Array Int Int) Int Int Int ) Bool)
(declare-fun assign_70_2_440 ((Array Int Int) (Array Int Int) (Array Int Int) (Array Int Int) (Array Int Int) (Array Int Int) (Array Int Int) (Array Int Int) (Array Int Int) (Array Int Int) Int Int Int ) Bool)
(declare-fun arrayassign_69_2_431 ((Array Int Int) (Array Int Int) (Array Int Int) (Array Int Int) (Array Int Int) (Array Int Int) (Array Int Int) (Array Int Int) (Array Int Int) (Array Int Int) Int Int Int ) Bool)
(declare-fun while_67_8_443 ((Array Int Int) (Array Int Int) (Array Int Int) (Array Int Int) (Array Int Int) (Array Int Int) (Array Int Int) (Array Int Int) (Array Int Int) (Array Int Int) Int Int Int ) Bool)
(declare-fun assign_66_1_409 ((Array Int Int) (Array Int Int) (Array Int Int) (Array Int Int) (Array Int Int) (Array Int Int) (Array Int Int) (Array Int Int) (Array Int Int) (Array Int Int) Int Int Int ) Bool)
(declare-fun assign_63_2_400 ((Array Int Int) (Array Int Int) (Array Int Int) (Array Int Int) (Array Int Int) (Array Int Int) (Array Int Int) (Array Int Int) (Array Int Int) (Array Int Int) Int Int Int ) Bool)
(declare-fun arrayassign_62_2_391 ((Array Int Int) (Array Int Int) (Array Int Int) (Array Int Int) (Array Int Int) (Array Int Int) (Array Int Int) (Array Int Int) (Array Int Int) (Array Int Int) Int Int Int ) Bool)
(declare-fun while_60_8_403 ((Array Int Int) (Array Int Int) (Array Int Int) (Array Int Int) (Array Int Int) (Array Int Int) (Array Int Int) (Array Int Int) (Array Int Int) (Array Int Int) Int Int Int ) Bool)
(declare-fun assign_59_1_369 ((Array Int Int) (Array Int Int) (Array Int Int) (Array Int Int) (Array Int Int) (Array Int Int) (Array Int Int) (Array Int Int) (Array Int Int) (Array Int Int) Int Int Int ) Bool)
(declare-fun assign_56_2_360 ((Array Int Int) (Array Int Int) (Array Int Int) (Array Int Int) (Array Int Int) (Array Int Int) (Array Int Int) (Array Int Int) (Array Int Int) (Array Int Int) Int Int Int ) Bool)
(declare-fun arrayassign_55_2_351 ((Array Int Int) (Array Int Int) (Array Int Int) (Array Int Int) (Array Int Int) (Array Int Int) (Array Int Int) (Array Int Int) (Array Int Int) (Array Int Int) Int Int Int ) Bool)
(declare-fun while_53_8_363 ((Array Int Int) (Array Int Int) (Array Int Int) (Array Int Int) (Array Int Int) (Array Int Int) (Array Int Int) (Array Int Int) (Array Int Int) (Array Int Int) Int Int Int ) Bool)
(declare-fun assign_52_1_329 ((Array Int Int) (Array Int Int) (Array Int Int) (Array Int Int) (Array Int Int) (Array Int Int) (Array Int Int) (Array Int Int) (Array Int Int) (Array Int Int) Int Int Int ) Bool)
(declare-fun assign_49_2_320 ((Array Int Int) (Array Int Int) (Array Int Int) (Array Int Int) (Array Int Int) (Array Int Int) (Array Int Int) (Array Int Int) (Array Int Int) (Array Int Int) Int Int Int ) Bool)
(declare-fun arrayassign_48_2_311 ((Array Int Int) (Array Int Int) (Array Int Int) (Array Int Int) (Array Int Int) (Array Int Int) (Array Int Int) (Array Int Int) (Array Int Int) (Array Int Int) Int Int Int ) Bool)
(declare-fun while_46_8_323 ((Array Int Int) (Array Int Int) (Array Int Int) (Array Int Int) (Array Int Int) (Array Int Int) (Array Int Int) (Array Int Int) (Array Int Int) (Array Int Int) Int Int Int ) Bool)
(declare-fun assign_45_1_289 ((Array Int Int) (Array Int Int) (Array Int Int) (Array Int Int) (Array Int Int) (Array Int Int) (Array Int Int) (Array Int Int) (Array Int Int) (Array Int Int) Int Int Int ) Bool)
(declare-fun assign_42_2_280 ((Array Int Int) (Array Int Int) (Array Int Int) (Array Int Int) (Array Int Int) (Array Int Int) (Array Int Int) (Array Int Int) (Array Int Int) (Array Int Int) Int Int Int ) Bool)
(declare-fun arrayassign_41_2_271 ((Array Int Int) (Array Int Int) (Array Int Int) (Array Int Int) (Array Int Int) (Array Int Int) (Array Int Int) (Array Int Int) (Array Int Int) (Array Int Int) Int Int Int ) Bool)
(declare-fun while_39_8_283 ((Array Int Int) (Array Int Int) (Array Int Int) (Array Int Int) (Array Int Int) (Array Int Int) (Array Int Int) (Array Int Int) (Array Int Int) (Array Int Int) Int Int Int ) Bool)
(declare-fun assign_38_1_249 ((Array Int Int) (Array Int Int) (Array Int Int) (Array Int Int) (Array Int Int) (Array Int Int) (Array Int Int) (Array Int Int) (Array Int Int) (Array Int Int) Int Int Int ) Bool)
(declare-fun assign_35_2_240 ((Array Int Int) (Array Int Int) (Array Int Int) (Array Int Int) (Array Int Int) (Array Int Int) (Array Int Int) (Array Int Int) (Array Int Int) (Array Int Int) Int Int Int ) Bool)
(declare-fun arrayassign_34_2_231 ((Array Int Int) (Array Int Int) (Array Int Int) (Array Int Int) (Array Int Int) (Array Int Int) (Array Int Int) (Array Int Int) (Array Int Int) (Array Int Int) Int Int Int ) Bool)
(declare-fun while_32_8_243 ((Array Int Int) (Array Int Int) (Array Int Int) (Array Int Int) (Array Int Int) (Array Int Int) (Array Int Int) (Array Int Int) (Array Int Int) (Array Int Int) Int Int Int ) Bool)
(declare-fun assign_31_1_209 ((Array Int Int) (Array Int Int) (Array Int Int) (Array Int Int) (Array Int Int) (Array Int Int) (Array Int Int) (Array Int Int) (Array Int Int) (Array Int Int) Int Int Int ) Bool)
(declare-fun assign_28_2_200 ((Array Int Int) (Array Int Int) (Array Int Int) (Array Int Int) (Array Int Int) (Array Int Int) (Array Int Int) (Array Int Int) (Array Int Int) (Array Int Int) Int Int Int ) Bool)
(declare-fun arrayassign_27_2_191 ((Array Int Int) (Array Int Int) (Array Int Int) (Array Int Int) (Array Int Int) (Array Int Int) (Array Int Int) (Array Int Int) (Array Int Int) (Array Int Int) Int Int Int ) Bool)
(declare-fun while_25_8_203 ((Array Int Int) (Array Int Int) (Array Int Int) (Array Int Int) (Array Int Int) (Array Int Int) (Array Int Int) (Array Int Int) (Array Int Int) (Array Int Int) Int Int Int ) Bool)
(declare-fun assign_24_1_169 ((Array Int Int) (Array Int Int) (Array Int Int) (Array Int Int) (Array Int Int) (Array Int Int) (Array Int Int) (Array Int Int) (Array Int Int) (Array Int Int) Int Int Int ) Bool)
(declare-fun assign_21_2_160 ((Array Int Int) (Array Int Int) (Array Int Int) (Array Int Int) (Array Int Int) (Array Int Int) (Array Int Int) (Array Int Int) (Array Int Int) (Array Int Int) Int Int Int ) Bool)
(declare-fun arrayassign_20_2_151 ((Array Int Int) (Array Int Int) (Array Int Int) (Array Int Int) (Array Int Int) (Array Int Int) (Array Int Int) (Array Int Int) (Array Int Int) (Array Int Int) Int Int Int ) Bool)
(declare-fun while_18_8_163 ((Array Int Int) (Array Int Int) (Array Int Int) (Array Int Int) (Array Int Int) (Array Int Int) (Array Int Int) (Array Int Int) (Array Int Int) (Array Int Int) Int Int Int ) Bool)
(declare-fun assign_17_1_129 ((Array Int Int) (Array Int Int) (Array Int Int) (Array Int Int) (Array Int Int) (Array Int Int) (Array Int Int) (Array Int Int) (Array Int Int) (Array Int Int) Int Int Int ) Bool)
(declare-fun assign_14_2_120 ((Array Int Int) (Array Int Int) (Array Int Int) (Array Int Int) (Array Int Int) (Array Int Int) (Array Int Int) (Array Int Int) (Array Int Int) (Array Int Int) Int Int Int ) Bool)
(declare-fun arrayassign_13_2_111 ((Array Int Int) (Array Int Int) (Array Int Int) (Array Int Int) (Array Int Int) (Array Int Int) (Array Int Int) (Array Int Int) (Array Int Int) (Array Int Int) Int Int Int ) Bool)
(declare-fun while_11_8_123 ((Array Int Int) (Array Int Int) (Array Int Int) (Array Int Int) (Array Int Int) (Array Int Int) (Array Int Int) (Array Int Int) (Array Int Int) (Array Int Int) Int Int Int ) Bool)
(declare-fun assign_10_1_89 ((Array Int Int) (Array Int Int) (Array Int Int) (Array Int Int) (Array Int Int) (Array Int Int) (Array Int Int) (Array Int Int) (Array Int Int) (Array Int Int) Int Int Int ) Bool)
(declare-fun assign_8_1_83 ((Array Int Int) (Array Int Int) (Array Int Int) (Array Int Int) (Array Int Int) (Array Int Int) (Array Int Int) (Array Int Int) (Array Int Int) (Array Int Int) Int Int Int ) Bool)
(declare-fun end ((Array Int Int) (Array Int Int) (Array Int Int) (Array Int Int) (Array Int Int) (Array Int Int) (Array Int Int) (Array Int Int) (Array Int Int) (Array Int Int) Int Int Int ) Bool)
(declare-fun start ((Array Int Int) (Array Int Int) (Array Int Int) (Array Int Int) (Array Int Int) (Array Int Int) (Array Int Int) (Array Int Int) (Array Int Int) (Array Int Int) Int Int Int ) Bool)
(assert (forall ((a9 (Array Int Int)) (a8 (Array Int Int)) (a7 (Array Int Int)) (a6 (Array Int Int)) (a5 (Array Int Int)) (a4 (Array Int Int)) (a3 (Array Int Int)) (a2 (Array Int Int)) (a1 (Array Int Int)) (a0 (Array Int Int)) (N Int) (x Int) (i Int) ) ( => true (start a9  a8  a7  a6  a5  a4  a3  a2  a1  a0  N  x  i ))))
(assert (forall ((i Int) (x Int) (N Int) (a0 (Array Int Int)) (a1 (Array Int Int)) (a2 (Array Int Int)) (a3 (Array Int Int)) (a4 (Array Int Int)) (a5 (Array Int Int)) (a6 (Array Int Int)) (a7 (Array Int Int)) (a8 (Array Int Int)) (a9 (Array Int Int)) ) ( => (start a9  a8  a7  a6  a5  a4  a3  a2  a1  a0  N  x  i ) (assign_8_1_83 a9  a8  a7  a6  a5  a4  a3  a2  a1  a0  N  x  i ))))
;
;(assign)  N := Support.random()
(assert (forall ((rnd Int) (i Int) (x Int) (N Int) (a0 (Array Int Int)) (a1 (Array Int Int)) (a2 (Array Int Int)) (a3 (Array Int Int)) (a4 (Array Int Int)) (a5 (Array Int Int)) (a6 (Array Int Int)) (a7 (Array Int Int)) (a8 (Array Int Int)) (a9 (Array Int Int)) ) ( => (assign_8_1_83 a9  a8  a7  a6  a5  a4  a3  a2  a1  a0  N  x  i ) (assign_10_1_89 a9  a8  a7  a6  a5  a4  a3  a2  a1  a0  rnd x  i ))))
;
;(assign)  i := 0
(assert (forall ((i Int) (x Int) (N Int) (a0 (Array Int Int)) (a1 (Array Int Int)) (a2 (Array Int Int)) (a3 (Array Int Int)) (a4 (Array Int Int)) (a5 (Array Int Int)) (a6 (Array Int Int)) (a7 (Array Int Int)) (a8 (Array Int Int)) (a9 (Array Int Int)) ) ( => (assign_10_1_89 a9  a8  a7  a6  a5  a4  a3  a2  a1  a0  N  x  i ) (while_11_8_123 a9  a8  a7  a6  a5  a4  a3  a2  a1  a0  N  x  0))))
;
;(while)   while((i<N))
(assert (forall ((a9 (Array Int Int)) (a8 (Array Int Int)) (a7 (Array Int Int)) (a6 (Array Int Int)) (a5 (Array Int Int)) (a4 (Array Int Int)) (a3 (Array Int Int)) (a2 (Array Int Int)) (a1 (Array Int Int)) (a0 (Array Int Int)) (N Int) (x Int) (i Int) ) ( => ( and (while_11_8_123 a9  a8  a7  a6  a5  a4  a3  a2  a1  a0  N  x  i ) (< i  N )) (arrayassign_13_2_111 a9  a8  a7  a6  a5  a4  a3  a2  a1  a0  N  x  i ))))
(assert (forall ((a9 (Array Int Int)) (a8 (Array Int Int)) (a7 (Array Int Int)) (a6 (Array Int Int)) (a5 (Array Int Int)) (a4 (Array Int Int)) (a3 (Array Int Int)) (a2 (Array Int Int)) (a1 (Array Int Int)) (a0 (Array Int Int)) (N Int) (x Int) (i Int) ) ( => ( and (while_11_8_123 a9  a8  a7  a6  a5  a4  a3  a2  a1  a0  N  x  i ) (not (< i  N ))) (assign_17_1_129 a9  a8  a7  a6  a5  a4  a3  a2  a1  a0  N  x  i ))))
;
;(aassign) a2[i] := a1[i]
(assert (forall ((i Int) (x Int) (N Int) (a0 (Array Int Int)) (a1 (Array Int Int)) (a2 (Array Int Int)) (a3 (Array Int Int)) (a4 (Array Int Int)) (a5 (Array Int Int)) (a6 (Array Int Int)) (a7 (Array Int Int)) (a8 (Array Int Int)) (a9 (Array Int Int)) ) ( => (arrayassign_13_2_111 a9  a8  a7  a6  a5  a4  a3  a2  a1  a0  N  x  i ) (assign_14_2_120 a9  a8  a7  a6  a5  a4  a3  (store a2  i  (select a1  i )) a1  a0  N  x  i ))))
;
;(assign)  i := (i+1)
(assert (forall ((i Int) (x Int) (N Int) (a0 (Array Int Int)) (a1 (Array Int Int)) (a2 (Array Int Int)) (a3 (Array Int Int)) (a4 (Array Int Int)) (a5 (Array Int Int)) (a6 (Array Int Int)) (a7 (Array Int Int)) (a8 (Array Int Int)) (a9 (Array Int Int)) ) ( => (assign_14_2_120 a9  a8  a7  a6  a5  a4  a3  a2  a1  a0  N  x  i ) (while_11_8_123 a9  a8  a7  a6  a5  a4  a3  a2  a1  a0  N  x  (+ i  1)))))
;
;(assign)  i := 0
(assert (forall ((i Int) (x Int) (N Int) (a0 (Array Int Int)) (a1 (Array Int Int)) (a2 (Array Int Int)) (a3 (Array Int Int)) (a4 (Array Int Int)) (a5 (Array Int Int)) (a6 (Array Int Int)) (a7 (Array Int Int)) (a8 (Array Int Int)) (a9 (Array Int Int)) ) ( => (assign_17_1_129 a9  a8  a7  a6  a5  a4  a3  a2  a1  a0  N  x  i ) (while_18_8_163 a9  a8  a7  a6  a5  a4  a3  a2  a1  a0  N  x  0))))
;
;(while)   while((i<N))
(assert (forall ((a9 (Array Int Int)) (a8 (Array Int Int)) (a7 (Array Int Int)) (a6 (Array Int Int)) (a5 (Array Int Int)) (a4 (Array Int Int)) (a3 (Array Int Int)) (a2 (Array Int Int)) (a1 (Array Int Int)) (a0 (Array Int Int)) (N Int) (x Int) (i Int) ) ( => ( and (while_18_8_163 a9  a8  a7  a6  a5  a4  a3  a2  a1  a0  N  x  i ) (< i  N )) (arrayassign_20_2_151 a9  a8  a7  a6  a5  a4  a3  a2  a1  a0  N  x  i ))))
(assert (forall ((a9 (Array Int Int)) (a8 (Array Int Int)) (a7 (Array Int Int)) (a6 (Array Int Int)) (a5 (Array Int Int)) (a4 (Array Int Int)) (a3 (Array Int Int)) (a2 (Array Int Int)) (a1 (Array Int Int)) (a0 (Array Int Int)) (N Int) (x Int) (i Int) ) ( => ( and (while_18_8_163 a9  a8  a7  a6  a5  a4  a3  a2  a1  a0  N  x  i ) (not (< i  N ))) (assign_24_1_169 a9  a8  a7  a6  a5  a4  a3  a2  a1  a0  N  x  i ))))
;
;(aassign) a3[i] := a2[i]
(assert (forall ((i Int) (x Int) (N Int) (a0 (Array Int Int)) (a1 (Array Int Int)) (a2 (Array Int Int)) (a3 (Array Int Int)) (a4 (Array Int Int)) (a5 (Array Int Int)) (a6 (Array Int Int)) (a7 (Array Int Int)) (a8 (Array Int Int)) (a9 (Array Int Int)) ) ( => (arrayassign_20_2_151 a9  a8  a7  a6  a5  a4  a3  a2  a1  a0  N  x  i ) (assign_21_2_160 a9  a8  a7  a6  a5  a4  (store a3  i  (select a2  i )) a2  a1  a0  N  x  i ))))
;
;(assign)  i := (i+1)
(assert (forall ((i Int) (x Int) (N Int) (a0 (Array Int Int)) (a1 (Array Int Int)) (a2 (Array Int Int)) (a3 (Array Int Int)) (a4 (Array Int Int)) (a5 (Array Int Int)) (a6 (Array Int Int)) (a7 (Array Int Int)) (a8 (Array Int Int)) (a9 (Array Int Int)) ) ( => (assign_21_2_160 a9  a8  a7  a6  a5  a4  a3  a2  a1  a0  N  x  i ) (while_18_8_163 a9  a8  a7  a6  a5  a4  a3  a2  a1  a0  N  x  (+ i  1)))))
;
;(assign)  i := 0
(assert (forall ((i Int) (x Int) (N Int) (a0 (Array Int Int)) (a1 (Array Int Int)) (a2 (Array Int Int)) (a3 (Array Int Int)) (a4 (Array Int Int)) (a5 (Array Int Int)) (a6 (Array Int Int)) (a7 (Array Int Int)) (a8 (Array Int Int)) (a9 (Array Int Int)) ) ( => (assign_24_1_169 a9  a8  a7  a6  a5  a4  a3  a2  a1  a0  N  x  i ) (while_25_8_203 a9  a8  a7  a6  a5  a4  a3  a2  a1  a0  N  x  0))))
;
;(while)   while((i<N))
(assert (forall ((a9 (Array Int Int)) (a8 (Array Int Int)) (a7 (Array Int Int)) (a6 (Array Int Int)) (a5 (Array Int Int)) (a4 (Array Int Int)) (a3 (Array Int Int)) (a2 (Array Int Int)) (a1 (Array Int Int)) (a0 (Array Int Int)) (N Int) (x Int) (i Int) ) ( => ( and (while_25_8_203 a9  a8  a7  a6  a5  a4  a3  a2  a1  a0  N  x  i ) (< i  N )) (arrayassign_27_2_191 a9  a8  a7  a6  a5  a4  a3  a2  a1  a0  N  x  i ))))
(assert (forall ((a9 (Array Int Int)) (a8 (Array Int Int)) (a7 (Array Int Int)) (a6 (Array Int Int)) (a5 (Array Int Int)) (a4 (Array Int Int)) (a3 (Array Int Int)) (a2 (Array Int Int)) (a1 (Array Int Int)) (a0 (Array Int Int)) (N Int) (x Int) (i Int) ) ( => ( and (while_25_8_203 a9  a8  a7  a6  a5  a4  a3  a2  a1  a0  N  x  i ) (not (< i  N ))) (assign_31_1_209 a9  a8  a7  a6  a5  a4  a3  a2  a1  a0  N  x  i ))))
;
;(aassign) a4[i] := a3[i]
(assert (forall ((i Int) (x Int) (N Int) (a0 (Array Int Int)) (a1 (Array Int Int)) (a2 (Array Int Int)) (a3 (Array Int Int)) (a4 (Array Int Int)) (a5 (Array Int Int)) (a6 (Array Int Int)) (a7 (Array Int Int)) (a8 (Array Int Int)) (a9 (Array Int Int)) ) ( => (arrayassign_27_2_191 a9  a8  a7  a6  a5  a4  a3  a2  a1  a0  N  x  i ) (assign_28_2_200 a9  a8  a7  a6  a5  (store a4  i  (select a3  i )) a3  a2  a1  a0  N  x  i ))))
;
;(assign)  i := (i+1)
(assert (forall ((i Int) (x Int) (N Int) (a0 (Array Int Int)) (a1 (Array Int Int)) (a2 (Array Int Int)) (a3 (Array Int Int)) (a4 (Array Int Int)) (a5 (Array Int Int)) (a6 (Array Int Int)) (a7 (Array Int Int)) (a8 (Array Int Int)) (a9 (Array Int Int)) ) ( => (assign_28_2_200 a9  a8  a7  a6  a5  a4  a3  a2  a1  a0  N  x  i ) (while_25_8_203 a9  a8  a7  a6  a5  a4  a3  a2  a1  a0  N  x  (+ i  1)))))
;
;(assign)  i := 0
(assert (forall ((i Int) (x Int) (N Int) (a0 (Array Int Int)) (a1 (Array Int Int)) (a2 (Array Int Int)) (a3 (Array Int Int)) (a4 (Array Int Int)) (a5 (Array Int Int)) (a6 (Array Int Int)) (a7 (Array Int Int)) (a8 (Array Int Int)) (a9 (Array Int Int)) ) ( => (assign_31_1_209 a9  a8  a7  a6  a5  a4  a3  a2  a1  a0  N  x  i ) (while_32_8_243 a9  a8  a7  a6  a5  a4  a3  a2  a1  a0  N  x  0))))
;
;(while)   while((i<N))
(assert (forall ((a9 (Array Int Int)) (a8 (Array Int Int)) (a7 (Array Int Int)) (a6 (Array Int Int)) (a5 (Array Int Int)) (a4 (Array Int Int)) (a3 (Array Int Int)) (a2 (Array Int Int)) (a1 (Array Int Int)) (a0 (Array Int Int)) (N Int) (x Int) (i Int) ) ( => ( and (while_32_8_243 a9  a8  a7  a6  a5  a4  a3  a2  a1  a0  N  x  i ) (< i  N )) (arrayassign_34_2_231 a9  a8  a7  a6  a5  a4  a3  a2  a1  a0  N  x  i ))))
(assert (forall ((a9 (Array Int Int)) (a8 (Array Int Int)) (a7 (Array Int Int)) (a6 (Array Int Int)) (a5 (Array Int Int)) (a4 (Array Int Int)) (a3 (Array Int Int)) (a2 (Array Int Int)) (a1 (Array Int Int)) (a0 (Array Int Int)) (N Int) (x Int) (i Int) ) ( => ( and (while_32_8_243 a9  a8  a7  a6  a5  a4  a3  a2  a1  a0  N  x  i ) (not (< i  N ))) (assign_38_1_249 a9  a8  a7  a6  a5  a4  a3  a2  a1  a0  N  x  i ))))
;
;(aassign) a5[i] := a4[i]
(assert (forall ((i Int) (x Int) (N Int) (a0 (Array Int Int)) (a1 (Array Int Int)) (a2 (Array Int Int)) (a3 (Array Int Int)) (a4 (Array Int Int)) (a5 (Array Int Int)) (a6 (Array Int Int)) (a7 (Array Int Int)) (a8 (Array Int Int)) (a9 (Array Int Int)) ) ( => (arrayassign_34_2_231 a9  a8  a7  a6  a5  a4  a3  a2  a1  a0  N  x  i ) (assign_35_2_240 a9  a8  a7  a6  (store a5  i  (select a4  i )) a4  a3  a2  a1  a0  N  x  i ))))
;
;(assign)  i := (i+1)
(assert (forall ((i Int) (x Int) (N Int) (a0 (Array Int Int)) (a1 (Array Int Int)) (a2 (Array Int Int)) (a3 (Array Int Int)) (a4 (Array Int Int)) (a5 (Array Int Int)) (a6 (Array Int Int)) (a7 (Array Int Int)) (a8 (Array Int Int)) (a9 (Array Int Int)) ) ( => (assign_35_2_240 a9  a8  a7  a6  a5  a4  a3  a2  a1  a0  N  x  i ) (while_32_8_243 a9  a8  a7  a6  a5  a4  a3  a2  a1  a0  N  x  (+ i  1)))))
;
;(assign)  i := 0
(assert (forall ((i Int) (x Int) (N Int) (a0 (Array Int Int)) (a1 (Array Int Int)) (a2 (Array Int Int)) (a3 (Array Int Int)) (a4 (Array Int Int)) (a5 (Array Int Int)) (a6 (Array Int Int)) (a7 (Array Int Int)) (a8 (Array Int Int)) (a9 (Array Int Int)) ) ( => (assign_38_1_249 a9  a8  a7  a6  a5  a4  a3  a2  a1  a0  N  x  i ) (while_39_8_283 a9  a8  a7  a6  a5  a4  a3  a2  a1  a0  N  x  0))))
;
;(while)   while((i<N))
(assert (forall ((a9 (Array Int Int)) (a8 (Array Int Int)) (a7 (Array Int Int)) (a6 (Array Int Int)) (a5 (Array Int Int)) (a4 (Array Int Int)) (a3 (Array Int Int)) (a2 (Array Int Int)) (a1 (Array Int Int)) (a0 (Array Int Int)) (N Int) (x Int) (i Int) ) ( => ( and (while_39_8_283 a9  a8  a7  a6  a5  a4  a3  a2  a1  a0  N  x  i ) (< i  N )) (arrayassign_41_2_271 a9  a8  a7  a6  a5  a4  a3  a2  a1  a0  N  x  i ))))
(assert (forall ((a9 (Array Int Int)) (a8 (Array Int Int)) (a7 (Array Int Int)) (a6 (Array Int Int)) (a5 (Array Int Int)) (a4 (Array Int Int)) (a3 (Array Int Int)) (a2 (Array Int Int)) (a1 (Array Int Int)) (a0 (Array Int Int)) (N Int) (x Int) (i Int) ) ( => ( and (while_39_8_283 a9  a8  a7  a6  a5  a4  a3  a2  a1  a0  N  x  i ) (not (< i  N ))) (assign_45_1_289 a9  a8  a7  a6  a5  a4  a3  a2  a1  a0  N  x  i ))))
;
;(aassign) a6[i] := a5[i]
(assert (forall ((i Int) (x Int) (N Int) (a0 (Array Int Int)) (a1 (Array Int Int)) (a2 (Array Int Int)) (a3 (Array Int Int)) (a4 (Array Int Int)) (a5 (Array Int Int)) (a6 (Array Int Int)) (a7 (Array Int Int)) (a8 (Array Int Int)) (a9 (Array Int Int)) ) ( => (arrayassign_41_2_271 a9  a8  a7  a6  a5  a4  a3  a2  a1  a0  N  x  i ) (assign_42_2_280 a9  a8  a7  (store a6  i  (select a5  i )) a5  a4  a3  a2  a1  a0  N  x  i ))))
;
;(assign)  i := (i+1)
(assert (forall ((i Int) (x Int) (N Int) (a0 (Array Int Int)) (a1 (Array Int Int)) (a2 (Array Int Int)) (a3 (Array Int Int)) (a4 (Array Int Int)) (a5 (Array Int Int)) (a6 (Array Int Int)) (a7 (Array Int Int)) (a8 (Array Int Int)) (a9 (Array Int Int)) ) ( => (assign_42_2_280 a9  a8  a7  a6  a5  a4  a3  a2  a1  a0  N  x  i ) (while_39_8_283 a9  a8  a7  a6  a5  a4  a3  a2  a1  a0  N  x  (+ i  1)))))
;
;(assign)  i := 0
(assert (forall ((i Int) (x Int) (N Int) (a0 (Array Int Int)) (a1 (Array Int Int)) (a2 (Array Int Int)) (a3 (Array Int Int)) (a4 (Array Int Int)) (a5 (Array Int Int)) (a6 (Array Int Int)) (a7 (Array Int Int)) (a8 (Array Int Int)) (a9 (Array Int Int)) ) ( => (assign_45_1_289 a9  a8  a7  a6  a5  a4  a3  a2  a1  a0  N  x  i ) (while_46_8_323 a9  a8  a7  a6  a5  a4  a3  a2  a1  a0  N  x  0))))
;
;(while)   while((i<N))
(assert (forall ((a9 (Array Int Int)) (a8 (Array Int Int)) (a7 (Array Int Int)) (a6 (Array Int Int)) (a5 (Array Int Int)) (a4 (Array Int Int)) (a3 (Array Int Int)) (a2 (Array Int Int)) (a1 (Array Int Int)) (a0 (Array Int Int)) (N Int) (x Int) (i Int) ) ( => ( and (while_46_8_323 a9  a8  a7  a6  a5  a4  a3  a2  a1  a0  N  x  i ) (< i  N )) (arrayassign_48_2_311 a9  a8  a7  a6  a5  a4  a3  a2  a1  a0  N  x  i ))))
(assert (forall ((a9 (Array Int Int)) (a8 (Array Int Int)) (a7 (Array Int Int)) (a6 (Array Int Int)) (a5 (Array Int Int)) (a4 (Array Int Int)) (a3 (Array Int Int)) (a2 (Array Int Int)) (a1 (Array Int Int)) (a0 (Array Int Int)) (N Int) (x Int) (i Int) ) ( => ( and (while_46_8_323 a9  a8  a7  a6  a5  a4  a3  a2  a1  a0  N  x  i ) (not (< i  N ))) (assign_52_1_329 a9  a8  a7  a6  a5  a4  a3  a2  a1  a0  N  x  i ))))
;
;(aassign) a7[i] := a6[i]
(assert (forall ((i Int) (x Int) (N Int) (a0 (Array Int Int)) (a1 (Array Int Int)) (a2 (Array Int Int)) (a3 (Array Int Int)) (a4 (Array Int Int)) (a5 (Array Int Int)) (a6 (Array Int Int)) (a7 (Array Int Int)) (a8 (Array Int Int)) (a9 (Array Int Int)) ) ( => (arrayassign_48_2_311 a9  a8  a7  a6  a5  a4  a3  a2  a1  a0  N  x  i ) (assign_49_2_320 a9  a8  (store a7  i  (select a6  i )) a6  a5  a4  a3  a2  a1  a0  N  x  i ))))
;
;(assign)  i := (i+1)
(assert (forall ((i Int) (x Int) (N Int) (a0 (Array Int Int)) (a1 (Array Int Int)) (a2 (Array Int Int)) (a3 (Array Int Int)) (a4 (Array Int Int)) (a5 (Array Int Int)) (a6 (Array Int Int)) (a7 (Array Int Int)) (a8 (Array Int Int)) (a9 (Array Int Int)) ) ( => (assign_49_2_320 a9  a8  a7  a6  a5  a4  a3  a2  a1  a0  N  x  i ) (while_46_8_323 a9  a8  a7  a6  a5  a4  a3  a2  a1  a0  N  x  (+ i  1)))))
;
;(assign)  i := 0
(assert (forall ((i Int) (x Int) (N Int) (a0 (Array Int Int)) (a1 (Array Int Int)) (a2 (Array Int Int)) (a3 (Array Int Int)) (a4 (Array Int Int)) (a5 (Array Int Int)) (a6 (Array Int Int)) (a7 (Array Int Int)) (a8 (Array Int Int)) (a9 (Array Int Int)) ) ( => (assign_52_1_329 a9  a8  a7  a6  a5  a4  a3  a2  a1  a0  N  x  i ) (while_53_8_363 a9  a8  a7  a6  a5  a4  a3  a2  a1  a0  N  x  0))))
;
;(while)   while((i<N))
(assert (forall ((a9 (Array Int Int)) (a8 (Array Int Int)) (a7 (Array Int Int)) (a6 (Array Int Int)) (a5 (Array Int Int)) (a4 (Array Int Int)) (a3 (Array Int Int)) (a2 (Array Int Int)) (a1 (Array Int Int)) (a0 (Array Int Int)) (N Int) (x Int) (i Int) ) ( => ( and (while_53_8_363 a9  a8  a7  a6  a5  a4  a3  a2  a1  a0  N  x  i ) (< i  N )) (arrayassign_55_2_351 a9  a8  a7  a6  a5  a4  a3  a2  a1  a0  N  x  i ))))
(assert (forall ((a9 (Array Int Int)) (a8 (Array Int Int)) (a7 (Array Int Int)) (a6 (Array Int Int)) (a5 (Array Int Int)) (a4 (Array Int Int)) (a3 (Array Int Int)) (a2 (Array Int Int)) (a1 (Array Int Int)) (a0 (Array Int Int)) (N Int) (x Int) (i Int) ) ( => ( and (while_53_8_363 a9  a8  a7  a6  a5  a4  a3  a2  a1  a0  N  x  i ) (not (< i  N ))) (assign_59_1_369 a9  a8  a7  a6  a5  a4  a3  a2  a1  a0  N  x  i ))))
;
;(aassign) a8[i] := a7[i]
(assert (forall ((i Int) (x Int) (N Int) (a0 (Array Int Int)) (a1 (Array Int Int)) (a2 (Array Int Int)) (a3 (Array Int Int)) (a4 (Array Int Int)) (a5 (Array Int Int)) (a6 (Array Int Int)) (a7 (Array Int Int)) (a8 (Array Int Int)) (a9 (Array Int Int)) ) ( => (arrayassign_55_2_351 a9  a8  a7  a6  a5  a4  a3  a2  a1  a0  N  x  i ) (assign_56_2_360 a9  (store a8  i  (select a7  i )) a7  a6  a5  a4  a3  a2  a1  a0  N  x  i ))))
;
;(assign)  i := (i+1)
(assert (forall ((i Int) (x Int) (N Int) (a0 (Array Int Int)) (a1 (Array Int Int)) (a2 (Array Int Int)) (a3 (Array Int Int)) (a4 (Array Int Int)) (a5 (Array Int Int)) (a6 (Array Int Int)) (a7 (Array Int Int)) (a8 (Array Int Int)) (a9 (Array Int Int)) ) ( => (assign_56_2_360 a9  a8  a7  a6  a5  a4  a3  a2  a1  a0  N  x  i ) (while_53_8_363 a9  a8  a7  a6  a5  a4  a3  a2  a1  a0  N  x  (+ i  1)))))
;
;(assign)  i := 0
(assert (forall ((i Int) (x Int) (N Int) (a0 (Array Int Int)) (a1 (Array Int Int)) (a2 (Array Int Int)) (a3 (Array Int Int)) (a4 (Array Int Int)) (a5 (Array Int Int)) (a6 (Array Int Int)) (a7 (Array Int Int)) (a8 (Array Int Int)) (a9 (Array Int Int)) ) ( => (assign_59_1_369 a9  a8  a7  a6  a5  a4  a3  a2  a1  a0  N  x  i ) (while_60_8_403 a9  a8  a7  a6  a5  a4  a3  a2  a1  a0  N  x  0))))
;
;(while)   while((i<N))
(assert (forall ((a9 (Array Int Int)) (a8 (Array Int Int)) (a7 (Array Int Int)) (a6 (Array Int Int)) (a5 (Array Int Int)) (a4 (Array Int Int)) (a3 (Array Int Int)) (a2 (Array Int Int)) (a1 (Array Int Int)) (a0 (Array Int Int)) (N Int) (x Int) (i Int) ) ( => ( and (while_60_8_403 a9  a8  a7  a6  a5  a4  a3  a2  a1  a0  N  x  i ) (< i  N )) (arrayassign_62_2_391 a9  a8  a7  a6  a5  a4  a3  a2  a1  a0  N  x  i ))))
(assert (forall ((a9 (Array Int Int)) (a8 (Array Int Int)) (a7 (Array Int Int)) (a6 (Array Int Int)) (a5 (Array Int Int)) (a4 (Array Int Int)) (a3 (Array Int Int)) (a2 (Array Int Int)) (a1 (Array Int Int)) (a0 (Array Int Int)) (N Int) (x Int) (i Int) ) ( => ( and (while_60_8_403 a9  a8  a7  a6  a5  a4  a3  a2  a1  a0  N  x  i ) (not (< i  N ))) (assign_66_1_409 a9  a8  a7  a6  a5  a4  a3  a2  a1  a0  N  x  i ))))
;
;(aassign) a9[i] := a8[i]
(assert (forall ((i Int) (x Int) (N Int) (a0 (Array Int Int)) (a1 (Array Int Int)) (a2 (Array Int Int)) (a3 (Array Int Int)) (a4 (Array Int Int)) (a5 (Array Int Int)) (a6 (Array Int Int)) (a7 (Array Int Int)) (a8 (Array Int Int)) (a9 (Array Int Int)) ) ( => (arrayassign_62_2_391 a9  a8  a7  a6  a5  a4  a3  a2  a1  a0  N  x  i ) (assign_63_2_400 (store a9  i  (select a8  i )) a8  a7  a6  a5  a4  a3  a2  a1  a0  N  x  i ))))
;
;(assign)  i := (i+1)
(assert (forall ((i Int) (x Int) (N Int) (a0 (Array Int Int)) (a1 (Array Int Int)) (a2 (Array Int Int)) (a3 (Array Int Int)) (a4 (Array Int Int)) (a5 (Array Int Int)) (a6 (Array Int Int)) (a7 (Array Int Int)) (a8 (Array Int Int)) (a9 (Array Int Int)) ) ( => (assign_63_2_400 a9  a8  a7  a6  a5  a4  a3  a2  a1  a0  N  x  i ) (while_60_8_403 a9  a8  a7  a6  a5  a4  a3  a2  a1  a0  N  x  (+ i  1)))))
;
;(assign)  i := 0
(assert (forall ((i Int) (x Int) (N Int) (a0 (Array Int Int)) (a1 (Array Int Int)) (a2 (Array Int Int)) (a3 (Array Int Int)) (a4 (Array Int Int)) (a5 (Array Int Int)) (a6 (Array Int Int)) (a7 (Array Int Int)) (a8 (Array Int Int)) (a9 (Array Int Int)) ) ( => (assign_66_1_409 a9  a8  a7  a6  a5  a4  a3  a2  a1  a0  N  x  i ) (while_67_8_443 a9  a8  a7  a6  a5  a4  a3  a2  a1  a0  N  x  0))))
;
;(while)   while((i<N))
(assert (forall ((a9 (Array Int Int)) (a8 (Array Int Int)) (a7 (Array Int Int)) (a6 (Array Int Int)) (a5 (Array Int Int)) (a4 (Array Int Int)) (a3 (Array Int Int)) (a2 (Array Int Int)) (a1 (Array Int Int)) (a0 (Array Int Int)) (N Int) (x Int) (i Int) ) ( => ( and (while_67_8_443 a9  a8  a7  a6  a5  a4  a3  a2  a1  a0  N  x  i ) (< i  N )) (arrayassign_69_2_431 a9  a8  a7  a6  a5  a4  a3  a2  a1  a0  N  x  i ))))
(assert (forall ((a9 (Array Int Int)) (a8 (Array Int Int)) (a7 (Array Int Int)) (a6 (Array Int Int)) (a5 (Array Int Int)) (a4 (Array Int Int)) (a3 (Array Int Int)) (a2 (Array Int Int)) (a1 (Array Int Int)) (a0 (Array Int Int)) (N Int) (x Int) (i Int) ) ( => ( and (while_67_8_443 a9  a8  a7  a6  a5  a4  a3  a2  a1  a0  N  x  i ) (not (< i  N ))) (assign_73_1_449 a9  a8  a7  a6  a5  a4  a3  a2  a1  a0  N  x  i ))))
;
;(aassign) a0[i] := a9[i]
(assert (forall ((i Int) (x Int) (N Int) (a0 (Array Int Int)) (a1 (Array Int Int)) (a2 (Array Int Int)) (a3 (Array Int Int)) (a4 (Array Int Int)) (a5 (Array Int Int)) (a6 (Array Int Int)) (a7 (Array Int Int)) (a8 (Array Int Int)) (a9 (Array Int Int)) ) ( => (arrayassign_69_2_431 a9  a8  a7  a6  a5  a4  a3  a2  a1  a0  N  x  i ) (assign_70_2_440 a9  a8  a7  a6  a5  a4  a3  a2  a1  (store a0  i  (select a9  i )) N  x  i ))))
;
;(assign)  i := (i+1)
(assert (forall ((i Int) (x Int) (N Int) (a0 (Array Int Int)) (a1 (Array Int Int)) (a2 (Array Int Int)) (a3 (Array Int Int)) (a4 (Array Int Int)) (a5 (Array Int Int)) (a6 (Array Int Int)) (a7 (Array Int Int)) (a8 (Array Int Int)) (a9 (Array Int Int)) ) ( => (assign_70_2_440 a9  a8  a7  a6  a5  a4  a3  a2  a1  a0  N  x  i ) (while_67_8_443 a9  a8  a7  a6  a5  a4  a3  a2  a1  a0  N  x  (+ i  1)))))
;
;(assign)  x := 0
(assert (forall ((i Int) (x Int) (N Int) (a0 (Array Int Int)) (a1 (Array Int Int)) (a2 (Array Int Int)) (a3 (Array Int Int)) (a4 (Array Int Int)) (a5 (Array Int Int)) (a6 (Array Int Int)) (a7 (Array Int Int)) (a8 (Array Int Int)) (a9 (Array Int Int)) ) ( => (assign_73_1_449 a9  a8  a7  a6  a5  a4  a3  a2  a1  a0  N  x  i ) (while_74_8_487 a9  a8  a7  a6  a5  a4  a3  a2  a1  a0  N  0 i ))))
;
;(while)   while((x<N))
(assert (forall ((a9 (Array Int Int)) (a8 (Array Int Int)) (a7 (Array Int Int)) (a6 (Array Int Int)) (a5 (Array Int Int)) (a4 (Array Int Int)) (a3 (Array Int Int)) (a2 (Array Int Int)) (a1 (Array Int Int)) (a0 (Array Int Int)) (N Int) (x Int) (i Int) ) ( => ( and (while_74_8_487 a9  a8  a7  a6  a5  a4  a3  a2  a1  a0  N  x  i ) (< x  N )) (assert_76_2_475 a9  a8  a7  a6  a5  a4  a3  a2  a1  a0  N  x  i ))))
(assert (forall ((a9 (Array Int Int)) (a8 (Array Int Int)) (a7 (Array Int Int)) (a6 (Array Int Int)) (a5 (Array Int Int)) (a4 (Array Int Int)) (a3 (Array Int Int)) (a2 (Array Int Int)) (a1 (Array Int Int)) (a0 (Array Int Int)) (N Int) (x Int) (i Int) ) ( => ( and (while_74_8_487 a9  a8  a7  a6  a5  a4  a3  a2  a1  a0  N  x  i ) (not (< x  N ))) (end a9  a8  a7  a6  a5  a4  a3  a2  a1  a0  N  x  i ))))
;
;(assert)  (a1[x]==a0[x])
(assert (forall ((i Int) (x Int) (N Int) (a0 (Array Int Int)) (a1 (Array Int Int)) (a2 (Array Int Int)) (a3 (Array Int Int)) (a4 (Array Int Int)) (a5 (Array Int Int)) (a6 (Array Int Int)) (a7 (Array Int Int)) (a8 (Array Int Int)) (a9 (Array Int Int)) ) ( => (assert_76_2_475 a9  a8  a7  a6  a5  a4  a3  a2  a1  a0  N  x  i ) (= (select a1  x ) (select a0  x )))))
(assert (forall ((i Int) (x Int) (N Int) (a0 (Array Int Int)) (a1 (Array Int Int)) (a2 (Array Int Int)) (a3 (Array Int Int)) (a4 (Array Int Int)) (a5 (Array Int Int)) (a6 (Array Int Int)) (a7 (Array Int Int)) (a8 (Array Int Int)) (a9 (Array Int Int)) ) ( => (assert_76_2_475 a9  a8  a7  a6  a5  a4  a3  a2  a1  a0  N  x  i ) (assign_77_2_484 a9  a8  a7  a6  a5  a4  a3  a2  a1  a0  N  x  i ))))
;
;(assign)  x := (x+1)
(assert (forall ((i Int) (x Int) (N Int) (a0 (Array Int Int)) (a1 (Array Int Int)) (a2 (Array Int Int)) (a3 (Array Int Int)) (a4 (Array Int Int)) (a5 (Array Int Int)) (a6 (Array Int Int)) (a7 (Array Int Int)) (a8 (Array Int Int)) (a9 (Array Int Int)) ) ( => (assign_77_2_484 a9  a8  a7  a6  a5  a4  a3  a2  a1  a0  N  x  i ) (while_74_8_487 a9  a8  a7  a6  a5  a4  a3  a2  a1  a0  N  (+ x  1) i ))))
(check-sat)
